10
0 1 6
0 2 1
0 3 1
0 4 6
0 5 10
0 6 2
0 7 9
0 8 2
0 9 5
1 2 2
1 3 1
1 4 3
1 5 10
1 6 5
1 7 10
1 8 3
1 9 4
2 3 9
2 4 7
2 5 3
2 6 3
2 7 5
2 8 9
2 9 7
3 4 2
3 5 3
3 6 6
3 7 1
3 8 2
3 9 7
4 5 1
4 6 7
4 7 8
4 8 4
4 9 4
5 6 9
5 7 5
5 8 2
5 9 1
6 7 2
6 8 4
6 9 1
7 8 4
7 9 5
8 9 7
